db/data/2448526146305272919428631195911883326457.z3.out
-------------------
2500.113987287
